p cnf 86 344
-86 0
-86 -85 0
-86 -73 0
-86 -65 0
-86 -64 0
-86 -56 0
-86 -44 0
-85 0
-85 -84 0
-85 -72 0
-85 -64 0
-85 -63 0
-85 -55 0
-84 0
-84 -83 0
-84 -71 0
-84 -63 0
-84 -62 0
-84 -54 0
-83 0
-83 -82 0
-83 -70 0
-83 -62 0
-83 -61 0
-83 -53 0
-82 0
-82 -81 0
-82 -69 0
-82 -61 0
-82 -60 0
-82 -52 0
-81 0
-81 -80 0
-81 -68 0
-81 -60 0
-81 -59 0
-81 -51 0
-80 0
-80 -79 0
-80 -67 0
-80 -59 0
-80 -58 0
-80 -50 0
-79 0
-79 -78 0
-79 -66 0
-79 -58 0
-79 -57 0
-79 -49 0
-78 0
-78 -77 0
-78 -65 0
-78 -57 0
-78 -56 0
-78 -48 0
-77 0
-77 -76 0
-77 -64 0
-77 -56 0
-77 -55 0
-77 -47 0
-76 0
-76 -75 0
-76 -63 0
-76 -55 0
-76 -54 0
-76 -46 0
-75 0
-75 -74 0
-75 -62 0
-75 -54 0
-75 -53 0
-75 -45 0
-74 0
-74 -73 0
-74 -61 0
-74 -53 0
-74 -52 0
-74 -44 0
-73 0
-73 -72 0
-73 -60 0
-73 -52 0
-73 -51 0
-72 0
-72 -71 0
-72 -59 0
-72 -51 0
-72 -50 0
-71 0
-71 -70 0
-71 -58 0
-71 -50 0
-71 -49 0
-70 0
-70 -69 0
-70 -57 0
-70 -49 0
-70 -48 0
-69 0
-69 -68 0
-69 -56 0
-69 -48 0
-69 -47 0
-68 0
-68 -67 0
-68 -55 0
-68 -47 0
-68 -46 0
-67 0
-67 -66 0
-67 -54 0
-67 -46 0
-67 -45 0
-66 0
-66 -65 0
-66 -53 0
-66 -45 0
-66 -44 0
-65 0
-65 -64 0
-65 -52 0
-65 -44 0
-64 0
-64 -63 0
-64 -51 0
-63 0
-63 -62 0
-63 -50 0
-62 0
-62 -61 0
-62 -49 0
-61 0
-61 -60 0
-61 -48 0
-60 0
-60 -59 0
-60 -47 0
-59 0
-59 -58 0
-59 -46 0
-58 0
-58 -57 0
-58 -45 0
-57 0
-57 -56 0
-57 -44 0
-56 0
-56 -55 0
-55 0
-55 -54 0
-54 0
-54 -53 0
-53 0
-53 -52 0
-52 0
-52 -51 0
-51 0
-51 -50 0
-50 0
-50 -49 0
-49 0
-49 -48 0
-48 0
-48 -47 0
-47 0
-47 -46 0
-46 0
-46 -45 0
-45 0
-45 -44 0
-44 0
-43 -40 -37 0
-43 -40 -3 0
-43 -6 -3 0
-42 -39 -36 0
-42 -39 -2 0
-42 -5 -2 0
-41 -38 -35 0
-41 -38 -1 0
-41 -4 -1 0
-40 -37 -34 0
-39 -36 -33 0
-38 -35 -32 0
-37 -34 -31 0
-36 -33 -30 0
-35 -32 -29 0
-34 -31 -28 0
-33 -30 -27 0
-32 -29 -26 0
-31 -28 -25 0
-30 -27 -24 0
-29 -26 -23 0
-28 -25 -22 0
-27 -24 -21 0
-26 -23 -20 0
-25 -22 -19 0
-24 -21 -18 0
-23 -20 -17 0
-22 -19 -16 0
-21 -18 -15 0
-20 -17 -14 0
-19 -16 -13 0
-18 -15 -12 0
-17 -14 -11 0
-16 -13 -10 0
-15 -12 -9 0
-14 -11 -8 0
-13 -10 -7 0
-12 -9 -6 0
-11 -8 -5 0
-10 -7 -4 0
-9 -6 -3 0
-8 -5 -2 0
-7 -4 -1 0
1 14 44 50 0
1 20 50 69 0
1 20 50 74 0
1 25 50 74 0
1 25 55 74 0
1 31 74 80 0
2 15 45 51 0
2 21 51 70 0
2 21 51 75 0
2 26 51 75 0
2 26 56 75 0
2 32 75 81 0
3 16 46 52 0
3 22 52 71 0
3 22 52 76 0
3 27 52 76 0
3 27 57 76 0
3 33 76 82 0
4 17 47 53 0
4 23 53 72 0
4 23 53 77 0
4 28 53 77 0
4 28 58 77 0
4 34 77 83 0
5 18 48 54 0
5 24 54 73 0
5 24 54 78 0
5 29 54 78 0
5 29 59 78 0
5 35 78 84 0
6 19 49 55 0
6 25 55 74 0
6 25 55 79 0
6 30 55 79 0
6 30 60 79 0
6 36 79 85 0
7 20 50 56 0
7 26 56 75 0
7 26 56 80 0
7 31 56 80 0
7 31 61 80 0
7 37 80 86 0
8 21 51 57 0
8 27 57 76 0
8 27 57 81 0
8 32 57 81 0
8 32 62 81 0
8 38 44 81 0
9 22 52 58 0
9 28 58 77 0
9 28 58 82 0
9 33 58 82 0
9 33 63 82 0
9 39 45 82 0
10 23 53 59 0
10 29 59 78 0
10 29 59 83 0
10 34 59 83 0
10 34 64 83 0
10 40 46 83 0
11 24 54 60 0
11 30 60 79 0
11 30 60 84 0
11 35 60 84 0
11 35 65 84 0
11 41 47 84 0
12 25 55 61 0
12 31 61 80 0
12 31 61 85 0
12 36 61 85 0
12 36 66 85 0
12 42 48 85 0
13 26 56 62 0
13 32 62 81 0
13 32 62 86 0
13 37 62 86 0
13 37 67 86 0
13 43 49 86 0
14 27 57 63 0
14 33 44 63 0
14 33 63 82 0
14 38 44 63 0
14 38 44 68 0
15 28 58 64 0
15 34 45 64 0
15 34 64 83 0
15 39 45 64 0
15 39 45 69 0
16 29 59 65 0
16 35 46 65 0
16 35 65 84 0
16 40 46 65 0
16 40 46 70 0
17 30 60 66 0
17 36 47 66 0
17 36 66 85 0
17 41 47 66 0
17 41 47 71 0
18 31 61 67 0
18 37 48 67 0
18 37 67 86 0
18 42 48 67 0
18 42 48 72 0
19 32 62 68 0
19 38 44 68 0
19 38 49 68 0
19 43 49 68 0
19 43 49 73 0
20 33 63 69 0
20 39 45 69 0
20 39 50 69 0
21 34 64 70 0
21 40 46 70 0
21 40 51 70 0
22 35 65 71 0
22 41 47 71 0
22 41 52 71 0
23 36 66 72 0
23 42 48 72 0
23 42 53 72 0
24 37 67 73 0
24 43 49 73 0
24 43 54 73 0
25 38 68 74 0
26 39 69 75 0
27 40 70 76 0
28 41 71 77 0
29 42 72 78 0
30 43 73 79 0
